0 2623
1 2623
2 2563
3 2563
4 2513
5 2463
6 2285
7 2285
8 2285
9 2206
10 2067
11 2026
12 2026
13 1969
14 1969
15 1959
16 1874
17 1835
18 1835
19 1835
20 1835
21 1835
22 1772
23 1754
24 1734
25 1734
26 1734
27 1680
28 1680
29 1680
30 1680
31 1680
32 1673
33 1673
34 1661
35 1661
36 1661
37 1661
38 1661
39 1661
40 1661
41 1582
42 1582
43 1582
44 1567
45 1567
46 1567
47 1567
48 1490
49 1490
50 1490
51 1490
52 1490
53 1490
54 1490
55 1490
56 1484
57 1484
58 1484
59 1484
60 1484
61 1449
62 1449
63 1449
64 1449
65 1444
66 1444
67 1439
68 1411
69 1407
70 1407
71 1407
72 1407
73 1407
74 1407
75 1407
76 1397
77 1397
78 1346
79 1346
80 1346
81 1346
82 1346
83 1346
84 1346
85 1346
86 1304
87 1304
88 1304
89 1304
90 1304
91 1304
92 1304
93 1304
94 1304
95 1289
96 1289
97 1288
98 1280
99 1268
100 1268
101 1250
102 1250
103 1250
104 1250
105 1245
106 1231
107 1231
108 1231
109 1231
110 1231
111 1231
112 1231
113 1218
114 1218
115 1218
116 1218
117 1218
118 1218
119 1212
120 1212
121 1212
122 1203
123 1203
124 1197
125 1197
126 1193
127 1192
128 1190
129 1176
130 1170
131 1170
132 1158
133 1158
134 1158
135 1158
136 1158
137 1158
138 1158
139 1140
140 1126
141 1126
142 1126
143 1126
144 1126
145 1126
146 1126
147 1126
148 1126
149 1126
150 1126
151 1120
152 1120
153 1120
154 1120
155 1120
156 1118
157 1109
158 1109
159 1109
160 1103
161 1103
162 1103
163 1091
164 1091
165 1091
166 1091
167 1091
168 1091
169 1091
170 1080
171 1080
172 1080
173 1080
174 1080
175 1080
176 1080
177 1070
178 1070
179 1070
180 1070
181 1070
182 1070
183 1070
184 1070
185 1070
186 1070
187 1070
188 1070
189 1067
190 1067
191 1064
192 1064
193 1064
194 1064
195 1064
196 1064
197 1064
198 1064
199 1064
200 1064
201 1064
202 1061
203 1061
204 1061
205 1061
206 1061
207 1054
208 1054
209 1053
210 1053
211 1051
212 1051
213 1050
214 1050
215 1050
216 1050
217 1050
218 1050
219 1048
220 1048
221 1048
222 1048
223 1048
224 1048
225 1048
226 1048
227 1048
228 1048
229 1048
230 1048
231 1048
232 1048
233 1048
234 1047
235 1047
236 1047
237 1047
238 1047
239 1047
240 1047
241 1047
242 1047
243 1047
244 1047
245 1047
246 1045
247 1045
248 1045
249 1045
250 1045
251 1045
252 1045
253 1045
254 1044
255 1044
256 1044
257 1044
258 1044
259 1044
260 1044
261 1044
262 1044
263 1044
264 1044
265 1044
266 1044
267 1042
268 1042
269 1042
270 1042
271 1042
272 1042
273 1042
274 1042
275 1042
276 1042
277 1041
278 1041
279 1041
280 1041
281 1041
282 1041
283 1041
284 1041
285 1041
286 1041
287 1041
288 1041
289 1041
290 1041
291 1041
292 1041
293 1041
294 1041
295 1040
296 1040
297 1040
298 1040
299 1040
300 1040
301 1040
302 1039
303 1039
304 1039
305 1039
306 1039
307 1039
308 1039
309 1039
310 1039
311 1039
312 1039
313 1039
314 1039
315 1039
316 1039
317 1039
318 1039
319 1039
320 1039
321 1039
322 1039
323 1039
324 1039
325 1039
326 1039
327 1039
328 1039
329 1039
330 1039
331 1039
332 1039
333 1039
334 1039
335 1039
336 1039
337 1039
338 1039
339 1039
340 1039
341 1039
342 1039
343 1039
344 1039
345 1039
346 1039
347 1039
348 1039
349 1039
350 1039
351 1039
352 1039
353 1039
354 1039
355 1039
356 1039
357 1039
358 1039
359 1039
360 1039
361 1039
362 1038
363 1038
364 1038
365 1038
366 1038
367 1038
368 1038
369 1038
370 1038
371 1038
372 1038
373 1038
374 1038
375 1038
376 1038
377 1038
378 1038
379 1038
380 1038
381 1038
382 1038
383 1038
384 1038
385 1038
386 1038
387 1038
388 1038
389 1038
390 1038
391 1038
392 1038
393 1038
394 1038
395 1038
396 1038
397 1038
398 1038
399 1038
400 1038
401 1038
402 1038
403 1038
404 1038
405 1038
406 1038
407 1038
408 1038
409 1038
410 1038
411 1038
412 1038
413 1038
414 1038
415 1038
416 1038
417 1038
418 1038
419 1038
420 1038
421 1038
422 1038
423 1038
424 1038
425 1038
426 1038
427 1038
428 1038
429 1038
430 1038
431 1038
432 1038
433 1038
434 1038
435 1038
436 1038
437 1038
438 1038
439 1038
440 1038
441 1038
442 1038
443 1038
444 1038
445 1038
446 1038
447 1038
448 1038
449 1038
450 1038
451 1038
452 1038
453 1038
454 1038
455 1038
456 1038
457 1038
458 1038
459 1038
460 1038
461 1038
462 1038
463 1038
464 1038
465 1038
466 1038
467 1038
468 1038
469 1038
470 1038
471 1038
472 1038
473 1038
474 1038
475 1038
476 1038
477 1038
478 1038
479 1038
480 1038
481 1038
482 1038
483 1038
484 1038
485 1038
486 1038
487 1038
488 1038
489 1038
490 1038
491 1038
492 1038
493 1038
494 1038
495 1038
496 1038
497 1038
498 1038
499 1038
500 1038
501 1038
502 1038
503 1038
504 1038
505 1038
506 1038
507 1038
508 1038
509 1038
510 1038
511 1038
512 1038
513 1038
514 1038
515 1038
516 1038
517 1038
518 1038
519 1038
520 1038
521 1038
522 1038
523 1038
524 1038
525 1038
526 1033
527 1033
528 1033
529 1033
530 1033
531 1033
532 1033
533 1033
534 1033
535 1033
536 1033
537 1033
538 1033
539 1033
540 1033
541 1033
542 1033
543 1033
544 1033
545 1033
546 1033
547 1033
548 1033
549 1033
550 1033
551 1033
552 1032
553 1032
554 1032
555 1032
556 1032
557 1032
558 1032
559 1032
560 1032
561 1032
562 1032
563 1032
564 1032
565 1032
566 1032
567 1032
568 1032
569 1032
570 1032
571 1032
572 1032
573 1032
574 1032
575 1032
576 1032
577 1032
578 1032
579 1032
580 1032
581 1032
582 1032
583 1032
584 1032
585 1032
586 1032
587 1032
588 1032
589 1032
590 1032
591 1032
592 1032
593 1032
594 1032
595 1032
596 1032
597 1032
598 1032
599 1032
600 1032
601 1032
602 1032
603 1032
604 1032
605 1032
606 1032
607 1032
608 1032
609 1032
610 1032
611 1032
612 1032
613 1032
614 1032
615 1032
616 1032
617 1032
618 1032
619 1032
620 1032
621 1032
622 1032
623 1032
624 1032
625 1032
626 1032
627 1032
628 1032
629 1032
630 1032
631 1032
632 1032
633 1032
634 1032
635 1032
636 1032
637 1032
638 1032
639 1032
640 1032
641 1032
642 1032
643 1032
644 1032
645 1032
646 1032
647 1032
648 1032
649 1032
650 1032
651 1032
652 1032
653 1032
654 1032
655 1032
656 1032
657 1032
658 1032
659 1032
660 1032
661 1032
662 1032
663 1032
664 1032
665 1032
666 1032
667 1032
668 1032
669 1032
670 1032
671 1032
672 1032
673 1032
674 1032
675 1032
676 1032
677 1032
678 1032
679 1032
680 1032
681 1032
682 1032
683 1032
684 1032
685 1032
686 1032
687 1032
688 1032
689 1032
690 1032
691 1032
692 1032
693 1032
694 1032
695 1032
696 1032
697 1032
698 1032
699 1032
700 1032
701 1032
702 1032
703 1032
704 1032
705 1032
706 1032
707 1032
708 1032
709 1032
710 1032
711 1032
712 1032
713 1032
714 1032
715 1032
716 1032
717 1032
718 1032
719 1032
720 1032
721 1032
722 1032
723 1032
724 1032
725 1032
726 1032
727 1032
728 1032
729 1032
730 1032
731 1032
732 1032
733 1032
734 1032
735 1032
736 1032
737 1032
738 1032
739 1032
740 1032
741 1032
742 1032
743 1032
744 1032
745 1032
746 1032
747 1032
748 1032
749 1032
750 1032
751 1032
752 1032
753 1032
754 1032
755 1032
756 1032
757 1032
758 1032
759 1032
760 1032
761 1032
762 1032
763 1032
764 1032
765 1032
766 1032
767 1032
768 1032
769 1032
770 1032
771 1032
772 1032
773 1032
774 1032
775 1032
776 1032
777 1032
778 1032
779 1032
780 1032
781 1032
782 1026
783 1026
784 1026
785 1026
786 1026
787 1026
788 1026
789 1026
790 1026
791 1026
792 1026
793 1026
794 1026
795 1026
796 1026
797 1026
798 1026
799 1026
800 1026
801 1026
802 1026
803 1026
804 1026
805 1026
806 1026
807 1026
808 1026
809 1026
810 1026
811 1026
812 1026
813 1026
814 1026
815 1026
816 1026
817 1026
818 1026
819 1011
820 1011
821 1011
822 1011
823 1011
824 1011
825 1011
826 1011
827 1011
828 1011
829 1011
830 1011
831 1011
832 1011
833 1011
834 1011
835 1011
836 1011
837 1011
838 1011
839 1011
840 1011
841 1011
842 1011
843 1011
844 1011
845 1011
846 1011
847 1011
848 1011
849 1011
850 1011
851 1011
852 1011
853 1011
854 1011
855 1011
856 1011
857 1011
858 1011
859 1011
860 1011
861 1011
862 1011
863 1011
864 1011
865 1011
866 1011
867 1011
868 1011
869 1008
870 1008
871 1008
872 1008
873 1008
874 1008
875 1008
876 1007
877 1007
878 1007
879 1007
880 1007
881 1007
882 1007
883 1007
884 1007
885 1007
886 1007
887 1007
888 1007
889 1007
890 1007
891 1007
892 1007
893 1007
894 1007
895 1007
896 1007
897 1007
898 1003
899 1003
900 1003
901 1003
902 1003
903 1003
904 1003
905 1003
906 1003
907 1003
908 1003
909 1003
910 1003
911 1003
912 1003
913 1003
914 1003
915 1003
916 1003
917 1003
918 1003
919 1003
920 1003
921 1003
922 1003
923 1003
924 1003
925 1003
926 1003
927 1002
928 1002
929 1002
930 1002
931 1002
932 1002
933 1002
934 1002
935 1002
936 1001
937 1001
938 1001
939 1001
940 1001
941 1001
942 1001
943 1001
944 1001
945 1001
946 1001
947 1001
948 1001
949 1001
950 1001
951 1001
952 998
953 998
954 998
955 998
956 998
957 997
958 997
959 997
960 997
961 997
962 997
963 997
964 997
965 997
966 997
967 997
968 997
969 997
970 997
971 997
972 997
973 997
974 997
975 997
976 997
977 997
978 997
979 997
980 997
981 997
982 997
983 997
984 995
985 995
986 995
987 995
988 995
989 995
990 995
991 995
992 995
993 995
994 995
995 995
996 995
997 995
998 995
999 995
Best: [[17,26,36,8],
       [15,21,2,4,6,9,7],
       [5,18,20,34,3,10,32],
       [14,31,16,33,28],
       [25,30,37,35,19],
       [27,11,12,13,23,24,29,22]], fitness: 995
